%%%mzn-stat: initTime=0.004949474
%%%mzn-stat: objective=471
%%%mzn-stat: nodes=1749
%%%mzn-stat: restarts=0
%%%mzn-stat: peakDepth=173
%%%mzn-stat: solveTime=0.129200106
%%%mzn-stat: variables=465
%%%mzn-stat: propagators=1515
%%%mzn-stat: failures=958
%%%mzn-stat: propagations=378310
%%%mzn-stat: nogoods=958
%%%mzn-stat: AverageConflictSize=3.2254697286012526
%%%mzn-stat: NumUnitNogoodsLearned=470
%%%mzn-stat: AverageLearnedNogoodLength=4.541753653444676
%%%mzn-stat: AverageBacktrackAmount=0
%%%mzn-stat: AverageLbd=2.68580375782881
%%%mzn-stat-end
maxleg = 471;
succ = array1d(1..50,[49, 8, 10, 39, 45, 40, 11, 9, 4, 1, 18, 34, 20, 38, 23, 7, 48, 5, 25, 36, 41, 30, 28, 33, 3, 32, 6, 24, 17, 26, 21, 16, 37, 50, 47, 35, 44, 15, 31, 43, 22, 13, 46, 2, 42, 19, 27, 12, 29, 14]);
% time elapsed: 1.01 s
----------
==========
% time elapsed: 1.01 s
%%%mzn-stat: initTime=0.004949474
%%%mzn-stat: objective=471
%%%mzn-stat: nodes=1749
%%%mzn-stat: restarts=0
%%%mzn-stat: peakDepth=173
%%%mzn-stat: solveTime=0.129203946
%%%mzn-stat: variables=465
%%%mzn-stat: propagators=1515
%%%mzn-stat: failures=958
%%%mzn-stat: propagations=378310
%%%mzn-stat: nogoods=958
%%%mzn-stat: AverageConflictSize=3.2254697286012526
%%%mzn-stat: NumUnitNogoodsLearned=470
%%%mzn-stat: AverageLearnedNogoodLength=4.541753653444676
%%%mzn-stat: AverageBacktrackAmount=0
%%%mzn-stat: AverageLbd=2.68580375782881
%%%mzn-stat-end
